NAME : gr96.tsp
COMMENT : Optimal tour for gr96.tsp
TYPE : TOUR
DIMENSION : 96
Total Length: 543.0144552287172
TOUR_SECTION
1
30
31
32
36
37
38
35
34
29
2
3
4
5
6
8
7
9
10
12
13
14
15
16
17
20
18
19
21
22
26
23
24
25
48
47
46
11
33
45
44
39
40
41
42
43
49
50
52
53
55
51
69
57
56
58
54
60
61
62
63
64
68
67
66
27
28
65
96
94
95
93
92
76
77
78
88
89
90
91
87
86
85
84
74
75
73
72
71
59
70
82
81
83
80
79
-1
EOF
